2-dimensional/CL_07_25_08.vbp
2
150 150 
25
43 36 30
53 56 72
45 47 4
65 58 88
23 30 54
97 99 64
91 95 90
77 78 26
73 67 94
42 48 28
56 63 72
53 50 49
77 76 54
40 44 19
38 29 28
38 41 61
28 20 84
28 24 23
82 81 67
21 13 53
23 15 54
52 58 16
99 101 9
22 22 54
26 29 77
