datasets/2-dimensional-benchmark/CL_07_25_08.txt
150 150 
0 30 43 36 
1 72 53 56 
2 4 45 47 
3 88 65 58 
4 54 23 30 
5 64 97 99 
6 90 91 95 
7 26 77 78 
8 94 73 67 
9 28 42 48 
10 72 56 63 
11 49 53 50 
12 54 77 76 
13 19 40 44 
14 28 38 29 
15 61 38 41 
16 84 28 20 
17 23 28 24 
18 67 82 81 
19 53 21 13 
20 54 23 15 
21 16 52 58 
22 9 99 101 
23 54 22 22 
24 77 26 29 
